experiment/data/lkh-res/Vrp-Set-B-n64/Vrp-Set-B-n64-lkh/0.lkh1.vrp
NAME : 0
COMMENT : CVRP Instance
TYPE : CVRP
DIMENSION : 64
EDGE_WEIGHT_TYPE : EUC_2D
CAPACITY : 100
NODE_COORD_SECTION
1	5900	7300
2	7900	6500
3	7300	2700
4	4100	8100
5	1100	9300
6	1300	8900
7	1100	1500
8	7100	8100
9	7700	8900
10	4100	8700
11	4400	9400
12	5100	10100
13	4200	9200
14	5800	10400
15	1400	9400
16	1800	9000
17	6000	10200
18	7200	8600
19	4500	9500
20	2000	9000
21	7400	3200
22	7800	9000
23	1800	9800
24	7800	3600
25	1600	9000
26	7800	3600
27	8000	7400
28	7800	9200
29	5200	10800
30	4900	9700
31	7200	8200
32	7200	8800
33	4200	8200
34	5000	9200
35	8200	9400
36	1600	9400
37	1800	9400
38	4200	8800
39	7800	9400
40	8000	3200
41	8400	9600
42	7600	8200
43	7800	3000
44	8800	6800
45	1800	2000
46	1800	2000
47	7400	8200
48	4700	9500
49	1800	9400
50	8600	6800
51	4500	9500
52	1400	10200
53	8200	6600
54	1400	1600
55	7600	8600
56	1800	10200
57	5800	10600
58	7600	3400
59	1800	1800
60	1400	9600
61	1800	9400
62	4600	9600
63	8200	7000
64	7600	2800
DEMAND_SECTION
1	0
2	24
3	15
4	2
5	3
6	24
7	17
8	9
9	4
10	2
11	15
12	20
13	17
14	15
15	20
16	8
17	6
18	2
19	6
20	18
21	5
22	16
23	2
24	18
25	1
26	13
27	17
28	5
29	14
30	19
31	3
32	22
33	6
34	9
35	22
36	6
37	18
38	23
39	24
40	4
41	20
42	16
43	15
44	24
45	16
46	9
47	4
48	11
49	3
50	54
51	36
52	19
53	11
54	21
55	12
56	9
57	17
58	16
59	14
60	14
61	21
62	19
63	6
64	17
DEPOT_SECTION
1
-1
EOF
