experiment/data/lkh-res/Vrp-Set-B-n64/Vrp-Set-B-n64-lkh/0.lkh1.log
PARAMETER_FILE = baseline_results/cvrp_lkh/Vrp-Set-B-n64/Vrp-Set-B-n64-lkh/0.lkh1.par
Reading PROBLEM_FILE: "baseline_results/cvrp_lkh/Vrp-Set-B-n64/Vrp-Set-B-n64-lkh/0.lkh1.vrp" ... done
ASCENT_CANDIDATES = 50
BACKBONE_TRIALS = 0
BACKTRACKING = NO
# BWTSP =
# CANDIDATE_FILE =
CANDIDATE_SET_TYPE = ALPHA
# DISTANCE =
DEPOT = 1
# EDGE_FILE =
EXCESS = 0.015625
EXTERNAL_SALESMEN = 0
EXTRA_CANDIDATES = 0 
EXTRA_CANDIDATE_SET_TYPE = QUADRANT
GAIN23 = NO
GAIN_CRITERION = YES
INITIAL_PERIOD = 100
INITIAL_STEP_SIZE = 1
INITIAL_TOUR_ALGORITHM = WALK
# INITIAL_TOUR_FILE = 
INITIAL_TOUR_FRACTION = 1.000
# INPUT_TOUR_FILE = 
KICK_TYPE = 4
KICKS = 1
# MAX_BREADTH =
MAKESPAN = NO
MAX_CANDIDATES = 5 
MAX_SWAPS = 0
MAX_TRIALS = 10000
# MERGE_TOUR_FILE =
MOVE_TYPE = 5 SPECIAL
MTSP_MIN_SIZE = 1
MTSP_MAX_SIZE = 63
# MTSP_SOLUTION_FILE = 
# NONSEQUENTIAL_MOVE_TYPE = 5
# OPTIMUM =
OUTPUT_TOUR_FILE = baseline_results/cvrp_lkh/Vrp-Set-B-n64/Vrp-Set-B-n64-lkh/0.lkh1.tour
PATCHING_A = 1 
PATCHING_C = 0 
# PI_FILE = 
POPMUSIC_INITIAL_TOUR = NO
POPMUSIC_MAX_NEIGHBORS = 5
POPMUSIC_SAMPLE_SIZE = 10
POPMUSIC_SOLUTIONS = 50
POPMUSIC_TRIALS = 1
POPULATION_SIZE = 10
PRECISION = 100
PROBLEM_FILE = baseline_results/cvrp_lkh/Vrp-Set-B-n64/Vrp-Set-B-n64-lkh/0.lkh1.vrp
RECOMBINATION = IPT
RESTRICTED_SEARCH = YES
RUNS = 1
SALESMEN = 9
SCALE = 1
SEED = 1234
# SINTEF_SOLUTION_FILE = 
STOP_AT_OPTIMUM = YES
SUBGRADIENT = YES
# SUBPROBLEM_SIZE =
# SUBPROBLEM_TOUR_FILE = 
SUBSEQUENT_MOVE_TYPE = 5 SPECIAL
SUBSEQUENT_PATCHING = YES
# TIME_LIMIT =
# TOTAL_TIME_LIMIT =
# TOUR_FILE = 
TRACE_LEVEL = 1
VEHICLES = 9

Lower bound = 67626.9, Ascent time = 0.01 sec.
Cand.min = 5, Cand.avg = 5.0, Cand.max = 5
Preprocessing time = 0.01 sec.
* 1: Cost = 0_116039, Time = 0.01 sec. 
Writing OUTPUT_TOUR_FILE: "baseline_results/cvrp_lkh/Vrp-Set-B-n64/Vrp-Set-B-n64-lkh/0.lkh1.tour" ... done
* 2: Cost = 0_105401, Time = 0.03 sec. 
Writing OUTPUT_TOUR_FILE: "baseline_results/cvrp_lkh/Vrp-Set-B-n64/Vrp-Set-B-n64-lkh/0.lkh1.tour" ... done
* 3: Cost = 0_103289, Time = 0.03 sec. 
Writing OUTPUT_TOUR_FILE: "baseline_results/cvrp_lkh/Vrp-Set-B-n64/Vrp-Set-B-n64-lkh/0.lkh1.tour" ... done
* 4: Cost = 0_101920, Time = 0.05 sec. 
Writing OUTPUT_TOUR_FILE: "baseline_results/cvrp_lkh/Vrp-Set-B-n64/Vrp-Set-B-n64-lkh/0.lkh1.tour" ... done
* 5: Cost = 0_95108, Time = 0.07 sec. 
Writing OUTPUT_TOUR_FILE: "baseline_results/cvrp_lkh/Vrp-Set-B-n64/Vrp-Set-B-n64-lkh/0.lkh1.tour" ... done
* 11: Cost = 0_92378, Time = 0.12 sec. 
Writing OUTPUT_TOUR_FILE: "baseline_results/cvrp_lkh/Vrp-Set-B-n64/Vrp-Set-B-n64-lkh/0.lkh1.tour" ... done
* 21: Cost = 0_89588, Time = 0.17 sec. 
Writing OUTPUT_TOUR_FILE: "baseline_results/cvrp_lkh/Vrp-Set-B-n64/Vrp-Set-B-n64-lkh/0.lkh1.tour" ... done
* 22: Cost = 0_89513, Time = 0.17 sec. 
Writing OUTPUT_TOUR_FILE: "baseline_results/cvrp_lkh/Vrp-Set-B-n64/Vrp-Set-B-n64-lkh/0.lkh1.tour" ... done
* 29: Cost = 0_89406, Time = 0.20 sec. 
Writing OUTPUT_TOUR_FILE: "baseline_results/cvrp_lkh/Vrp-Set-B-n64/Vrp-Set-B-n64-lkh/0.lkh1.tour" ... done
* 30: Cost = 0_89331, Time = 0.21 sec. 
Writing OUTPUT_TOUR_FILE: "baseline_results/cvrp_lkh/Vrp-Set-B-n64/Vrp-Set-B-n64-lkh/0.lkh1.tour" ... done
* 36: Cost = 0_89324, Time = 0.23 sec. 
Writing OUTPUT_TOUR_FILE: "baseline_results/cvrp_lkh/Vrp-Set-B-n64/Vrp-Set-B-n64-lkh/0.lkh1.tour" ... done
* 37: Cost = 0_89215, Time = 0.24 sec. 
Writing OUTPUT_TOUR_FILE: "baseline_results/cvrp_lkh/Vrp-Set-B-n64/Vrp-Set-B-n64-lkh/0.lkh1.tour" ... done
* 42: Cost = 0_87900, Time = 0.26 sec. 
Writing OUTPUT_TOUR_FILE: "baseline_results/cvrp_lkh/Vrp-Set-B-n64/Vrp-Set-B-n64-lkh/0.lkh1.tour" ... done
* 45: Cost = 0_87728, Time = 0.28 sec. 
Writing OUTPUT_TOUR_FILE: "baseline_results/cvrp_lkh/Vrp-Set-B-n64/Vrp-Set-B-n64-lkh/0.lkh1.tour" ... done
* 61: Cost = 0_86944, Time = 0.36 sec. 
Writing OUTPUT_TOUR_FILE: "baseline_results/cvrp_lkh/Vrp-Set-B-n64/Vrp-Set-B-n64-lkh/0.lkh1.tour" ... done
* 548: Cost = 0_86943, Time = 2.69 sec. 
Writing OUTPUT_TOUR_FILE: "baseline_results/cvrp_lkh/Vrp-Set-B-n64/Vrp-Set-B-n64-lkh/0.lkh1.tour" ... done
* 762: Cost = 0_86880, Time = 3.51 sec. 
Writing OUTPUT_TOUR_FILE: "baseline_results/cvrp_lkh/Vrp-Set-B-n64/Vrp-Set-B-n64-lkh/0.lkh1.tour" ... done
* 763: Cost = 0_86814, Time = 3.52 sec. 
Writing OUTPUT_TOUR_FILE: "baseline_results/cvrp_lkh/Vrp-Set-B-n64/Vrp-Set-B-n64-lkh/0.lkh1.tour" ... done
Population:
  1: 0_86814
Run 1: Cost = 0_86814, Time = 42.03 sec. 

Successes/Runs = 0/1 
Cost.min = 86814, Cost.avg = 86814.00, Cost.max = 86814
Gap.min = 0.0000%, Gap.avg = 0.0000%, Gap.max = 0.0000%
Penalty.min = 0, Penalty.avg = 0.00, Penalty.max = 0
Trials.min = 10000, Trials.avg = 10000.0, Trials.max = 10000
Time.min = 42.03 sec., Time.avg = 42.03 sec., Time.max = 42.03 sec.
Time.total = 42.04 sec.
  Size.min = 4, Size.max = 10, Penalty = 0
  Cost.min = 5699, Cost.max = 20588, Cost.sum = 86814
Best CVRP solution:
  Cost = 0_86814

