experiment/data/lkh-res/Vrp-Set-B-n64/Vrp-Set-B-n64-lkh/0.lkh1.tour
NAME : 0.86814.tour
COMMENT : Length = 86814
COMMENT : Found by LKH-3 [Keld Helsgaun] Tue Apr  9 01:01:23 2024
TYPE : TOUR
DIMENSION : 72
TOUR_SECTION
1
31
47
9
22
35
41
39
28
18
67
58
21
64
43
40
24
26
69
38
13
11
19
51
72
8
32
55
42
27
2
65
3
59
54
7
45
46
4
33
68
10
49
36
60
15
5
6
25
16
20
70
17
14
57
29
12
30
34
71
48
62
56
52
23
37
61
66
63
50
44
53
-1
EOF
